2763832
173,178,157,81,62,91,205,182,174,183,78,40,169,215,119,212,111,7,162,63,32,208,3,87,35,227,25,45,88,171,150,186,109,228,21,168,82,67,83,116,127,198,97,137,31,180,49,94,192,102,27,55,130,108,28,139,145,166,9,36,140,135,1,110,154,167,16,60,58,131,152,206,221,176,201,8,26,126,51,191,117,85,46,118,122,2,15,156,19,200,79,84,113,73,213,195,164,226,209,61,124,86,65,138,185,172,93,57,159,148,199,66,141,53,216,175,202,105,190,18,56,92,100,121,106,158,30,134,14,34,107,20,160,23,47,10,114,220,29,143,72,74,43,188,204,193,177,165,52,149,104,214,77,128,219,222,54,99,41,24,22,5,136,123,218,203,68,115,163,71,147,76,210,207,69,39,144,132,98,120,225,44,90,142,170,103,13,48,64,17,197,194,42,6,37,89,161,151,96,75,80,11,153,33,129,4,12,224,125,59,181,70,95,38,217,146,187,230,223,211,179,196,101,184,50,112,155,133,229,189